Instance: E241-22k.dat
Class:  1
240 --- number of customers (no depot)
22 --- number of vehicles
240 --- number of items
Capacity - height - width of vehicles
   200     40     20
Node - x - y - demand  Readytime Duetime
  0.00    0.00   0.00   0.00 0       469.00
  1.00    5.80   0.00  40.00   7.00   45.00
  2.00    2.90   5.00  40.00 382.00  426.00
  3.00   -2.90   5.00  40.00 256.00  293.00
  4.00   -5.80   0.00  40.00 192.00  226.00
  5.00   -2.90  -5.00  40.00 189.00  230.00
  6.00    2.90  -5.00  40.00  50.00   85.00
  7.00    8.70   5.00  40.00 192.00  235.00
  8.00    0.00  10.00  40.00  58.00   88.00
  9.00   -8.70   5.00  40.00 198.00  232.00
 10.00   -8.70  -5.00  40.00 228.00  267.00
 11.00    0.00 -10.00  40.00 334.00  365.00
 12.00    8.70  -5.00  40.00 307.00  339.00
 13.00    5.30   0.80  10.00 116.00  153.00
 14.00    3.30   4.30  10.00 385.00  420.00
 15.00    6.50  -1.30  10.00 183.00  226.00
 16.00    7.20  -2.50  20.00  27.00   72.00
 17.00    7.90  -3.80  10.00  34.00   75.00
 18.00    6.50   1.30  10.00 319.00  357.00
 19.00    7.20   2.50  20.00  87.00  130.00
 20.00    7.90   3.80  10.00  22.00   62.00
 21.00    2.00   5.00  10.00 130.00  172.00
 22.00   -2.00   5.00  10.00 131.00  170.00
 23.00    4.30   5.00  10.00 185.00  230.00
 24.00    5.80   5.00  20.00 296.00  340.00
 25.00    7.20   5.00  10.00  97.00  139.00
 26.00    2.20   6.30  10.00  25.00   70.00
 27.00    1.40   7.50  20.00  78.00  116.00
 28.00    0.70   8.80  10.00  59.00  102.00
 29.00   -3.30   4.30  10.00 309.00  351.00
 30.00   -5.30   0.80  10.00 112.00  154.00
 31.00   -2.20   6.30  10.00  96.00  134.00
 32.00   -1.40   7.50  20.00 290.00  330.00
 33.00   -0.70   8.80  10.00 311.00  349.00
 34.00   -4.30   5.00  10.00  54.00   91.00
 35.00   -5.80   5.00  20.00 394.00  436.00
 36.00   -7.20   5.00  10.00 308.00  347.00
 37.00   -5.30  -0.80  10.00 213.00  250.00
 38.00   -3.30  -4.30  10.00 309.00  341.00
 39.00   -6.50   1.30  10.00 105.00  145.00
 40.00   -7.20   2.50  20.00 265.00  296.00
 41.00   -7.90   3.80  10.00 237.00  275.00
 42.00   -6.50  -1.30  10.00  47.00   92.00
 43.00   -7.20  -2.50  20.00 225.00  259.00
 44.00   -7.90  -3.80  10.00 301.00  339.00
 45.00   -2.00  -5.00  10.00 382.00  412.00
 46.00    2.00  -5.00  10.00 291.00  324.00
 47.00   -4.30  -5.00  10.00 233.00  265.00
 48.00   -5.80  -5.00  20.00 150.00  187.00
 49.00   -7.20  -5.00  10.00 167.00  198.00
 50.00   -2.20  -6.30  10.00 363.00  404.00
 51.00   -1.40  -7.50  20.00  51.00   90.00
 52.00   -0.70  -8.80  10.00 108.00  150.00
 53.00    3.30  -4.30  10.00 194.00  228.00
 54.00    5.30  -0.80  10.00 156.00  194.00
 55.00    2.20  -6.30  10.00 129.00  168.00
 56.00    1.40  -7.50  20.00  72.00  117.00
 57.00    0.70  -8.80  10.00 157.00  188.00
 58.00    4.30  -5.00  10.00  66.00   97.00
 59.00    5.80  -5.00  20.00 407.00  440.00
 60.00    7.20  -5.00  10.00  24.00   57.00
 61.00    7.20   0.00  40.00 186.00  217.00
 62.00    3.60   6.30  40.00 186.00  217.00
 63.00   -3.60   6.30  40.00 229.00  272.00
 64.00   -7.20   0.00  40.00   1.00   45.00
 65.00   -3.60  -6.30  40.00 350.00  383.00
 66.00    3.60  -6.30  40.00 210.00  251.00
 67.00   10.80   6.30  40.00  68.00  103.00
 68.00    0.00  12.50  40.00 172.00  217.00
 69.00  -10.80   6.30  40.00 255.00  300.00
 70.00  -10.80  -6.30  40.00  65.00  106.00
 71.00    0.00 -12.50  40.00 377.00  416.00
 72.00   10.80  -6.30  40.00 209.00  246.00
 73.00    6.70   0.90  10.00  23.00   56.00
 74.00    4.10   5.30  10.00 403.00  434.00
 75.00    8.10  -1.60  10.00 387.00  432.00
 76.00    9.00  -3.10  20.00 300.00  343.00
 77.00    9.90  -4.70  10.00  41.00   75.00
 78.00    8.10   1.60  10.00 260.00  299.00
 79.00    9.00   3.10  20.00  96.00  136.00
 80.00    9.90   4.70  10.00 146.00  188.00
 81.00    2.50   6.30  10.00 257.00  298.00
 82.00   -2.50   6.30  10.00 327.00  371.00
 83.00    5.40   6.30  10.00 376.00  415.00
 84.00    7.20   6.30  20.00 135.00  178.00
 85.00    9.00   6.30  10.00 251.00  293.00
 86.00    2.70   7.80  10.00 395.00  434.00
 87.00    1.80   9.40  20.00  97.00  137.00
 88.00    0.90  10.90  10.00 162.00  207.00
 89.00   -4.10   5.30  10.00 252.00  287.00
 90.00   -6.70   0.90  10.00 386.00  429.00
 91.00   -2.70   7.80  10.00 105.00  145.00
 92.00   -1.80   9.40  20.00 332.00  369.00
 93.00   -0.90  10.90  10.00 297.00  329.00
 94.00   -5.40   6.30  10.00 179.00  220.00
 95.00   -7.20   6.30  20.00 143.00  173.00
 96.00   -9.00   6.30  10.00 340.00  381.00
 97.00   -6.70  -0.90  10.00 334.00  368.00
 98.00   -4.10  -5.30  10.00  49.00   83.00
 99.00   -8.10   1.60  10.00 258.00  299.00
100.00   -9.00   3.10  20.00 110.00  143.00
101.00   -9.90   4.70  10.00  30.00   64.00
102.00   -8.10  -1.60  10.00 277.00  318.00
103.00   -9.00  -3.10  20.00  69.00  113.00
104.00   -9.90  -4.70  10.00 170.00  207.00
105.00   -2.50  -6.30  10.00 280.00  322.00
106.00    2.50  -6.30  10.00 355.00  394.00
107.00   -5.40  -6.30  10.00 382.00  414.00
108.00   -7.20  -6.30  20.00 154.00  184.00
109.00   -9.00  -6.30  10.00 109.00  152.00
110.00   -2.70  -7.80  10.00 377.00  410.00
111.00   -1.80  -9.40  20.00 194.00  228.00
112.00   -0.90 -10.90  10.00 234.00  271.00
113.00    4.10  -5.30  10.00  12.00   49.00
114.00    6.70  -0.90  10.00  41.00   85.00
115.00    2.70  -7.80  10.00 319.00  358.00
116.00    1.80  -9.40  20.00 261.00  304.00
117.00    0.90 -10.90  10.00 264.00  302.00
118.00    5.40  -6.30  10.00  40.00   78.00
119.00    7.20  -6.30  20.00 215.00  255.00
120.00    9.00  -6.30  10.00 294.00  331.00
121.00    9.00   0.00  40.00 189.00  233.00
122.00    4.50   7.80  40.00 373.00  418.00
123.00   -4.50   7.80  40.00 180.00  210.00
124.00   -9.00   0.00  40.00 282.00  321.00
125.00   -4.50  -7.80  40.00 308.00  349.00
126.00    4.50  -7.80  40.00  38.00   78.00
127.00   13.50   7.80  40.00  48.00   79.00
128.00    0.00  15.60  40.00 145.00  185.00
129.00  -13.50   7.80  40.00 186.00  228.00
130.00  -13.50  -7.80  40.00  28.00   61.00
131.00    0.00 -15.60  40.00  88.00  129.00
132.00   13.50  -7.80  40.00  96.00  133.00
133.00    8.30   1.20  10.00  86.00  128.00
134.00    5.20   6.60  10.00 383.00  415.00
135.00   10.10  -2.00  10.00 372.00  405.00
136.00   11.30  -3.90  20.00 106.00  149.00
137.00   12.40  -5.90  10.00 281.00  323.00
138.00   10.10   2.00  10.00 333.00  373.00
139.00   11.30   3.90  20.00 198.00  233.00
140.00   12.40   5.90  10.00 159.00  193.00
141.00    3.20   7.80  10.00 115.00  154.00
142.00   -3.20   7.80  10.00 385.00  418.00
143.00    6.80   7.80  10.00 201.00  234.00
144.00    9.00   7.80  20.00 300.00  332.00
145.00   11.30   7.80  10.00 384.00  423.00
146.00    3.40   9.80  10.00 230.00  272.00
147.00    2.30  11.70  20.00  39.00   75.00
148.00    1.10  13.70  10.00 341.00  385.00
149.00   -5.20   6.60  10.00 249.00  293.00
150.00   -8.30   1.20  10.00 377.00  414.00
151.00   -3.40   9.80  10.00 304.00  338.00
152.00   -2.30  11.70  20.00 277.00  309.00
153.00   -1.10  13.70  10.00 286.00  324.00
154.00   -6.80   7.80  10.00 274.00  314.00
155.00   -9.00   7.80  20.00  72.00  115.00
156.00  -11.30   7.80  10.00  66.00   96.00
157.00   -8.30  -1.20  10.00 395.00  436.00
158.00   -5.20  -6.60  10.00 173.00  203.00
159.00  -10.10   2.00  10.00 297.00  333.00
160.00  -11.30   3.90  20.00 363.00  401.00
161.00  -12.40   5.90  10.00 354.00  385.00
162.00  -10.10  -2.00  10.00 323.00  363.00
163.00  -11.30  -3.90  20.00 360.00  396.00
164.00  -12.40  -5.90  10.00 250.00  295.00
165.00   -3.20  -7.80  10.00 334.00  379.00
166.00    3.20  -7.80  10.00 304.00  337.00
167.00   -6.80  -7.80  10.00 122.00  158.00
168.00   -9.00  -7.80  20.00 106.00  142.00
169.00  -11.30  -7.80  10.00 173.00  204.00
170.00   -3.40  -9.80  10.00  37.00   73.00
171.00   -2.30 -11.70  20.00 389.00  419.00
172.00   -1.10 -13.70  10.00 360.00  404.00
173.00    5.20  -6.60  10.00  51.00   92.00
174.00    8.30  -1.20  10.00 146.00  189.00
175.00    3.40  -9.80  10.00 305.00  346.00
176.00    2.30 -11.70  20.00 320.00  363.00
177.00    1.10 -13.70  10.00  59.00   95.00
178.00    6.80  -7.80  10.00 114.00  158.00
179.00    9.00  -7.80  20.00 185.00  219.00
180.00   11.30  -7.80  10.00 341.00  379.00
181.00   11.30   0.00  40.00 359.00  399.00
182.00    5.60   9.80  40.00 388.00  431.00
183.00   -5.60   9.80  40.00 264.00  302.00
184.00  -11.30   0.00  40.00  30.00   61.00
185.00   -5.60  -9.80  40.00 125.00  159.00
186.00    5.60  -9.80  40.00  33.00   68.00
187.00   16.90   9.80  40.00 195.00  239.00
188.00    0.00  19.50  40.00 344.00  376.00
189.00  -16.90   9.80  40.00  13.00   51.00
190.00  -16.90  -9.80  40.00 276.00  310.00
191.00    0.00 -19.50  40.00 141.00  176.00
192.00   16.90  -9.80  40.00  36.00   73.00
193.00   10.40   1.50  10.00 125.00  164.00
194.00    6.50   8.30  10.00  34.00   65.00
195.00   12.70  -2.40  10.00 374.00  405.00
196.00   14.10  -4.90  20.00 399.00  435.00
197.00   15.50  -7.30  10.00 359.00  400.00
198.00   12.70   2.40  10.00  85.00  122.00
199.00   14.10   4.90  20.00 300.00  338.00
200.00   15.50   7.30  10.00 323.00  357.00
201.00    3.90   9.80  10.00 174.00  216.00
202.00   -3.90   9.80  10.00  59.00   95.00
203.00    8.50   9.80  10.00 369.00  401.00
204.00   11.30   9.80  20.00 108.00  149.00
205.00   14.10   9.80  10.00  37.00   75.00
206.00    4.20  12.20  10.00  44.00   85.00
207.00    2.80  14.60  20.00  17.00   56.00
208.00    1.40  17.10  10.00  23.00   62.00
209.00   -6.50   8.30  10.00 196.00  236.00
210.00  -10.40   1.50  10.00 226.00  269.00
211.00   -4.20  12.20  10.00 305.00  345.00
212.00   -2.80  14.60  20.00 304.00  342.00
213.00   -1.40  17.10  10.00  17.00   57.00
214.00   -8.50   9.80  10.00 386.00  418.00
215.00  -11.30   9.80  20.00 126.00  165.00
216.00  -14.10   9.80  10.00 369.00  406.00
217.00  -10.40  -1.50  10.00 201.00  234.00
218.00   -6.50  -8.30  10.00  93.00  133.00
219.00  -12.70   2.40  10.00 231.00  262.00
220.00  -14.10   4.90  20.00 301.00  343.00
221.00  -15.50   7.30  10.00 317.00  355.00
222.00  -12.70  -2.40  10.00 180.00  212.00
223.00  -14.10  -4.90  20.00 108.00  150.00
224.00  -15.50  -7.30  10.00 306.00  347.00
225.00   -3.90  -9.80  10.00 153.00  186.00
226.00    3.90  -9.80  10.00 309.00  342.00
227.00   -8.50  -9.80  10.00 326.00  361.00
228.00  -11.30  -9.80  20.00  21.00   61.00
229.00  -14.10  -9.80  10.00 248.00  279.00
230.00   -4.20 -12.20  10.00 269.00  308.00
231.00   -2.80 -14.60  20.00 369.00  413.00
232.00   -1.40 -17.10  10.00 220.00  262.00
233.00    6.50  -8.30  10.00 272.00  305.00
234.00   10.40  -1.50  10.00 303.00  340.00
235.00    4.20 -12.20  10.00  67.00  109.00
236.00    2.80 -14.60  20.00  23.00   60.00
237.00    1.40 -17.10  10.00 274.00  315.00
238.00    8.50  -9.80  10.00 134.00  171.00
239.00   11.30  -9.80  20.00 116.00  155.00
240.00   14.10  -9.80  10.00 378.00  422.00
Node - number of items - h - w for each item
    0   0
    1   2    5   18   32    3
    2   1   11    6
    3   2   13    8   10    7
    4   1   13    5
    5   1    8    5
    6   2   10    9   15    5
    7   1   31    4
    8   2   10    5   22    4
    9   2   17    8   17    8
   10   1   15    7
   11   1    5   17
   12   2   10    9   24    2
   13   2    5   15   14    7
   14   1    6   13
   15   1   12    9
   16   1   26    3
   17   2    8   13   29    4
   18   1   18    8
   19   1   15    8
   20   1   11    5
   21   2    8    9   34    3
   22   1   27    2
   23   1    4   10
   24   2   13    8   33    3
   25   2    4   15   18    5
   26   1    4   15
   27   2    7   18   10    6
   28   2   19    4   20    2
   29   2    5   17    8    6
   30   1    5   15
   31   1    8   17
   32   2    5   10   20    8
   33   2    6   16   13    9
   34   2    7   16   32    3
   35   2    7   10    5    9
   36   2   18    7   18    6
   37   2   15    6   26    2
   38   2   32    3   32    3
   39   2    4   17   32    2
   40   1    8   15
   41   1   17    3
   42   1   21    2
   43   2   14    8   13    4
   44   1   20    9
   45   2    8   18   17    8
   46   1   35    3
   47   1   30    3
   48   2    7   14   28    2
   49   1    9    7
   50   2    5   16   28    4
   51   2   19    7   18    5
   52   1   32    3
   53   2    9   10   19    3
   54   2   12    8   34    3
   55   2    5   16   15    8
   56   2   17    3   26    2
   57   1   13    7
   58   2   13    9    6    8
   59   2    7   13   15    9
   60   1   27    3
   61   2   15    8   12    5
   62   1   17    6
   63   1   19   10
   64   1   34    2
   65   1   15    5
   66   1   16    9
   67   2   18    7   35    3
   68   2    7   15   22    3
   69   2   16    7   22    3
   70   2    5   15   17    6
   71   2    5   10   34    3
   72   2    5   14   11   10
   73   2    6    9   16    7
   74   2   13    8   11    5
   75   1   19    6
   76   1    4   11
   77   1    8   17
   78   1    5   12
   79   2   35    3   17    3
   80   2   12    5   32    4
   81   2   12    6   29    2
   82   2    8   12   20    3
   83   1    4   18
   84   1   28    4
   85   1   10    7
   86   2    7   14   31    2
   87   2   15    5   21    3
   88   1    6   13
   89   2   32    4   18    3
   90   1   20    3
   91   2    7   16   33    3
   92   1    7    9
   93   1   31    4
   94   2   34    2   16    2
   95   1    5   17
   96   1   17    7
   97   1   27    2
   98   1   10    6
   99   2    7   17    4   14
  100   2   22    3   24    2
  101   2    6   15   15    5
  102   1   36    4
  103   2    6   11   10    9
  104   1   18    4
  105   1   14    6
  106   1   21    3
  107   2    4   16   18    5
  108   1    7   12
  109   1    4   18
  110   1    8   11
  111   2   11    9   35    2
  112   1   16    5
  113   2    6   14    7    9
  114   1   32    2
  115   2    5   14   25    3
  116   2   21    4   27    3
  117   1   18   10
  118   1   14    6
  119   1   35    3
  120   2   12    8   14    7
  121   1   21    2
  122   2   14    4   21    2
  123   2   17    9   17    4
  124   2   10    5   13    4
  125   2    5   10   10    8
  126   2   14    5   10    5
  127   2    7   15    6   10
  128   2    7   12   17    3
  129   2   19    8   23    4
  130   1   32    3
  131   1   10    4
  132   1   24    2
  133   2    8    9   16    7
  134   2   18    6   11    6
  135   1    4   16
  136   2    5    9   16    4
  137   1   18    5
  138   2   13    8   30    3
  139   2   17    6   30    3
  140   2    6   13    7    8
  141   2    5   16   29    3
  142   1   18    7
  143   1   31    4
  144   1   12    6
  145   2    8    6   11    5
  146   1    6   12
  147   1   30    2
  148   1   16    3
  149   2    4   14   26    4
  150   2   18    5   25    3
  151   1   19    7
  152   2    8   11   10    8
  153   2    7   13    7   10
  154   1   18    9
  155   1   22    3
  156   2    5   11   19    3
  157   1   19    3
  158   1    8    7
  159   1   35    3
  160   1    7   10
  161   1    6   11
  162   2   14    6   24    2
  163   2    8    5   25    3
  164   2   17    7   22    3
  165   2    5   12   28    4
  166   1   11    7
  167   2    8   15   24    2
  168   2    5   16   14    7
  169   1   33    3
  170   1   14    4
  171   2    5   13   26    2
  172   2    7   11   20    9
  173   2   10   10   20    5
  174   2   30    3   34    2
  175   1   30    2
  176   2    9    7   32    3
  177   1   25    4
  178   2   16   10   25    2
  179   2    6   16    4    9
  180   1   19    8
  181   2   17    4   18    2
  182   2    7   18    8   14
  183   2   32    3   23    3
  184   1   10   10
  185   1   14    4
  186   1   14    9
  187   1    6   16
  188   1   10    7
  189   1   16    4
  190   2    5   18   25    3
  191   2    5   13   11    6
  192   1    6   11
  193   1   16    5
  194   1   14    8
  195   1   24    2
  196   1    7   17
  197   2    9    9   14    6
  198   2   29    4   22    3
  199   2    6   17   23    3
  200   1   13    6
  201   1    7   11
  202   1   20    8
  203   2    8   12   17    2
  204   2    7   17    5   12
  205   2    5   13   19    6
  206   2   15    8   29    2
  207   2   10    7   18    2
  208   1   34    3
  209   2    7   12    6    9
  210   2    7   18    4   11
  211   1   28    3
  212   2    7   13    5   13
  213   1   18    5
  214   2   35    3   20    2
  215   2   15    9   18    4
  216   2    6   10   31    2
  217   2    7   16    9    5
  218   1    5   13
  219   1   13    9
  220   2   18    9   18    3
  221   2   13    7   19    4
  222   1   14    7
  223   2    4   16    6   15
  224   1   28    2
  225   1   15    5
  226   1   11    7
  227   2    5   14   33    3
  228   1    6   17
  229   2   15    9   31    3
  230   2    5   15   19    3
  231   2    7   11   19    9
  232   2    7   12   27    3
  233   1   17    6
  234   2    7   11   22    2
  235   2   15    6   26    3
  236   2   12    6   30    4
  237   2   20    4   28    3
  238   2   14    6   14    6
  239   2    8   13    5   13
  240   2   22    4   26    2
